NAME JobShopModel
ROWS
 N  OBJ
 G  c0      
 L  c1      
 G  c2      
 L  c3      
 G  c4      
 L  c5      
 G  c6      
 L  c7      
 G  c8      
 L  c9      
 G  c10     
 L  c11     
 G  c12     
 G  c13     
 G  c14     
 G  c15     
 G  c16     
 G  c17     
 E  c18     
 E  c19     
 E  c20     
 E  c21     
 E  c22     
 E  c23     
 L  c24     
 L  c25     
 L  c26     
 L  c27     
 L  c28     
 L  c29     
 L  c30     
 L  c31     
 L  c32     
 L  c33     
 L  c34     
 L  c35     
 G  c36     
 G  c37     
 G  c38     
 G  c39     
 G  c40     
 G  c41     
 G  c42     
 G  c43     
 G  c44     
 G  c45     
 G  c46     
 G  c47     
 G  c48     
 G  c49     
 G  c50     
 G  c51     
 G  c52     
 G  c53     
 G  c54     
 G  c55     
 G  c56     
 G  c57     
 G  c58     
 G  c59     
 G  c60     
 G  c61     
 G  c62     
 G  c63     
 G  c64     
 G  c65     
 G  c66     
 G  c67     
 G  c68     
 G  c69     
 G  c70     
 G  c71     
 G  c72     
 G  c73     
 G  c74     
 G  c75     
 G  c76     
 G  c77     
 G  c78     
 G  c79     
 G  c80     
 G  c81     
 G  c82     
 G  c83     
 G  c84     
 G  c85     
 G  c86     
 G  c87     
 G  c88     
 G  c89     
 G  c90     
 G  c91     
 G  c92     
 G  c93     
 G  c94     
 G  c95     
 G  c96     
 G  c97     
 G  c98     
 G  c99     
 G  c100    
 G  c101    
 G  c102    
 G  c103    
 G  c104    
 G  c105    
 G  c106    
 G  c107    
 G  c108    
 G  c109    
 G  c110    
 G  c111    
 G  c112    
 G  c113    
 G  c114    
 G  c115    
 G  c116    
 G  c117    
 G  c118    
 G  c119    
 G  c120    
 G  c121    
 G  c122    
 G  c123    
 G  c124    
 G  c125    
 G  c126    
 G  c127    
 G  c128    
 G  OF_constraint
COLUMNS
    MARKER    'MARKER'                 'INTORG'
    y[0,0,0]  c0        64
    y[0,0,0]  c1        64
    y[0,0,0]  c18       1
    y[0,0,0]  c24       -10000000
    y[0,0,0]  c39       -10000000
    y[0,0,0]  c40       -10000000
    y[0,0,0]  c43       -10000000
    y[0,0,0]  c44       -10000000
    y[0,0,0]  c47       -10000000
    y[0,0,0]  c48       -10000000
    y[0,0,0]  c51       -10000000
    y[0,0,0]  c52       -10000000
    y[0,0,0]  c55       -10000000
    y[0,0,0]  c56       -10000000
    y[0,0,0]  c59       -10000000
    y[0,0,0]  c60       -10000000
    y[0,0,1]  c2        71
    y[0,0,1]  c3        71
    y[0,0,1]  c18       1
    y[0,0,1]  c25       -10000000
    y[0,0,1]  c41       -10000000
    y[0,0,1]  c42       -10000000
    y[0,0,1]  c45       -10000000
    y[0,0,1]  c46       -10000000
    y[0,0,1]  c49       -10000000
    y[0,0,1]  c50       -10000000
    y[0,0,1]  c53       -10000000
    y[0,0,1]  c54       -10000000
    y[0,0,1]  c57       -10000000
    y[0,0,1]  c58       -10000000
    y[0,0,1]  c61       -10000000
    y[0,0,1]  c62       -10000000
    y[0,1,0]  c19       1
    y[0,1,0]  c26       -10000000
    y[0,1,0]  c36       -43
    y[0,1,0]  c39       -10000000
    y[0,1,0]  c40       -10000000
    y[0,1,0]  c59       -10000000
    y[0,1,0]  c60       -10000000
    y[0,1,0]  c63       -10000000
    y[0,1,0]  c64       -10000000
    y[0,1,0]  c67       -10000000
    y[0,1,0]  c68       -10000000
    y[0,1,0]  c71       -10000000
    y[0,1,0]  c72       -10000000
    y[0,1,0]  c75       -10000000
    y[0,1,0]  c76       -10000000
    y[0,1,0]  c113      -480
    y[0,1,1]  c19       1
    y[0,1,1]  c27       -10000000
    y[0,1,1]  c36       -36
    y[0,1,1]  c41       -10000000
    y[0,1,1]  c42       -10000000
    y[0,1,1]  c61       -10000000
    y[0,1,1]  c62       -10000000
    y[0,1,1]  c65       -10000000
    y[0,1,1]  c66       -10000000
    y[0,1,1]  c69       -10000000
    y[0,1,1]  c70       -10000000
    y[0,1,1]  c73       -10000000
    y[0,1,1]  c74       -10000000
    y[0,1,1]  c77       -10000000
    y[0,1,1]  c78       -10000000
    y[0,1,1]  c115      -480
    y[1,0,0]  c4        36
    y[1,0,0]  c5        36
    y[1,0,0]  c20       1
    y[1,0,0]  c28       -10000000
    y[1,0,0]  c43       -10000000
    y[1,0,0]  c44       -10000000
    y[1,0,0]  c63       -10000000
    y[1,0,0]  c64       -10000000
    y[1,0,0]  c79       -10000000
    y[1,0,0]  c80       -10000000
    y[1,0,0]  c83       -10000000
    y[1,0,0]  c84       -10000000
    y[1,0,0]  c87       -10000000
    y[1,0,0]  c88       -10000000
    y[1,0,0]  c91       -10000000
    y[1,0,0]  c92       -10000000
    y[1,0,1]  c6        21
    y[1,0,1]  c7        21
    y[1,0,1]  c20       1
    y[1,0,1]  c29       -10000000
    y[1,0,1]  c45       -10000000
    y[1,0,1]  c46       -10000000
    y[1,0,1]  c65       -10000000
    y[1,0,1]  c66       -10000000
    y[1,0,1]  c81       -10000000
    y[1,0,1]  c82       -10000000
    y[1,0,1]  c85       -10000000
    y[1,0,1]  c86       -10000000
    y[1,0,1]  c89       -10000000
    y[1,0,1]  c90       -10000000
    y[1,0,1]  c93       -10000000
    y[1,0,1]  c94       -10000000
    y[1,1,0]  c21       1
    y[1,1,0]  c30       -10000000
    y[1,1,0]  c37       -34
    y[1,1,0]  c47       -10000000
    y[1,1,0]  c48       -10000000
    y[1,1,0]  c67       -10000000
    y[1,1,0]  c68       -10000000
    y[1,1,0]  c79       -10000000
    y[1,1,0]  c80       -10000000
    y[1,1,0]  c91       -10000000
    y[1,1,0]  c92       -10000000
    y[1,1,0]  c95       -10000000
    y[1,1,0]  c96       -10000000
    y[1,1,0]  c99       -10000000
    y[1,1,0]  c100      -10000000
    y[1,1,0]  c119      -480
    y[1,1,1]  c21       1
    y[1,1,1]  c31       -10000000
    y[1,1,1]  c37       -53
    y[1,1,1]  c49       -10000000
    y[1,1,1]  c50       -10000000
    y[1,1,1]  c69       -10000000
    y[1,1,1]  c70       -10000000
    y[1,1,1]  c81       -10000000
    y[1,1,1]  c82       -10000000
    y[1,1,1]  c93       -10000000
    y[1,1,1]  c94       -10000000
    y[1,1,1]  c97       -10000000
    y[1,1,1]  c98       -10000000
    y[1,1,1]  c101      -10000000
    y[1,1,1]  c102      -10000000
    y[1,1,1]  c121      -480
    y[2,0,0]  c8        43
    y[2,0,0]  c9        43
    y[2,0,0]  c22       1
    y[2,0,0]  c32       -10000000
    y[2,0,0]  c51       -10000000
    y[2,0,0]  c52       -10000000
    y[2,0,0]  c71       -10000000
    y[2,0,0]  c72       -10000000
    y[2,0,0]  c83       -10000000
    y[2,0,0]  c84       -10000000
    y[2,0,0]  c95       -10000000
    y[2,0,0]  c96       -10000000
    y[2,0,0]  c103      -10000000
    y[2,0,0]  c104      -10000000
    y[2,0,0]  c107      -10000000
    y[2,0,0]  c108      -10000000
    y[2,0,1]  c10       37
    y[2,0,1]  c11       37
    y[2,0,1]  c22       1
    y[2,0,1]  c33       -10000000
    y[2,0,1]  c53       -10000000
    y[2,0,1]  c54       -10000000
    y[2,0,1]  c73       -10000000
    y[2,0,1]  c74       -10000000
    y[2,0,1]  c85       -10000000
    y[2,0,1]  c86       -10000000
    y[2,0,1]  c97       -10000000
    y[2,0,1]  c98       -10000000
    y[2,0,1]  c105      -10000000
    y[2,0,1]  c106      -10000000
    y[2,0,1]  c109      -10000000
    y[2,0,1]  c110      -10000000
    y[2,1,0]  c23       1
    y[2,1,0]  c34       -10000000
    y[2,1,0]  c38       -21
    y[2,1,0]  c55       -10000000
    y[2,1,0]  c56       -10000000
    y[2,1,0]  c75       -10000000
    y[2,1,0]  c76       -10000000
    y[2,1,0]  c87       -10000000
    y[2,1,0]  c88       -10000000
    y[2,1,0]  c99       -10000000
    y[2,1,0]  c100      -10000000
    y[2,1,0]  c103      -10000000
    y[2,1,0]  c104      -10000000
    y[2,1,0]  c107      -10000000
    y[2,1,0]  c108      -10000000
    y[2,1,0]  c125      -480
    y[2,1,1]  c23       1
    y[2,1,1]  c35       -10000000
    y[2,1,1]  c38       -35
    y[2,1,1]  c57       -10000000
    y[2,1,1]  c58       -10000000
    y[2,1,1]  c77       -10000000
    y[2,1,1]  c78       -10000000
    y[2,1,1]  c89       -10000000
    y[2,1,1]  c90       -10000000
    y[2,1,1]  c101      -10000000
    y[2,1,1]  c102      -10000000
    y[2,1,1]  c105      -10000000
    y[2,1,1]  c106      -10000000
    y[2,1,1]  c109      -10000000
    y[2,1,1]  c110      -10000000
    y[2,1,1]  c127      -480
    x[0,0,0,0]  OBJ       0
    x[0,0,0,1]  c39       10000000
    x[0,0,0,1]  c40       -10000000
    x[0,0,0,1]  c41       10000000
    x[0,0,0,1]  c42       -10000000
    x[0,0,1,0]  c43       10000000
    x[0,0,1,0]  c44       -10000000
    x[0,0,1,0]  c45       10000000
    x[0,0,1,0]  c46       -10000000
    x[0,0,1,1]  c47       10000000
    x[0,0,1,1]  c48       -10000000
    x[0,0,1,1]  c49       10000000
    x[0,0,1,1]  c50       -10000000
    x[0,0,2,0]  c51       10000000
    x[0,0,2,0]  c52       -10000000
    x[0,0,2,0]  c53       10000000
    x[0,0,2,0]  c54       -10000000
    x[0,0,2,1]  c55       10000000
    x[0,0,2,1]  c56       -10000000
    x[0,0,2,1]  c57       10000000
    x[0,0,2,1]  c58       -10000000
    x[0,1,0,0]  c59       10000000
    x[0,1,0,0]  c60       -10000000
    x[0,1,0,0]  c61       10000000
    x[0,1,0,0]  c62       -10000000
    x[0,1,0,1]  OBJ       0
    x[0,1,1,0]  c63       10000000
    x[0,1,1,0]  c64       -10000000
    x[0,1,1,0]  c65       10000000
    x[0,1,1,0]  c66       -10000000
    x[0,1,1,1]  c67       10000000
    x[0,1,1,1]  c68       -10000000
    x[0,1,1,1]  c69       10000000
    x[0,1,1,1]  c70       -10000000
    x[0,1,2,0]  c71       10000000
    x[0,1,2,0]  c72       -10000000
    x[0,1,2,0]  c73       10000000
    x[0,1,2,0]  c74       -10000000
    x[0,1,2,1]  c75       10000000
    x[0,1,2,1]  c76       -10000000
    x[0,1,2,1]  c77       10000000
    x[0,1,2,1]  c78       -10000000
    x[1,0,0,0]  OBJ       0
    x[1,0,0,1]  OBJ       0
    x[1,0,1,0]  OBJ       0
    x[1,0,1,1]  c79       10000000
    x[1,0,1,1]  c80       -10000000
    x[1,0,1,1]  c81       10000000
    x[1,0,1,1]  c82       -10000000
    x[1,0,2,0]  c83       10000000
    x[1,0,2,0]  c84       -10000000
    x[1,0,2,0]  c85       10000000
    x[1,0,2,0]  c86       -10000000
    x[1,0,2,1]  c87       10000000
    x[1,0,2,1]  c88       -10000000
    x[1,0,2,1]  c89       10000000
    x[1,0,2,1]  c90       -10000000
    x[1,1,0,0]  OBJ       0
    x[1,1,0,1]  OBJ       0
    x[1,1,1,0]  c91       10000000
    x[1,1,1,0]  c92       -10000000
    x[1,1,1,0]  c93       10000000
    x[1,1,1,0]  c94       -10000000
    x[1,1,1,1]  OBJ       0
    x[1,1,2,0]  c95       10000000
    x[1,1,2,0]  c96       -10000000
    x[1,1,2,0]  c97       10000000
    x[1,1,2,0]  c98       -10000000
    x[1,1,2,1]  c99       10000000
    x[1,1,2,1]  c100      -10000000
    x[1,1,2,1]  c101      10000000
    x[1,1,2,1]  c102      -10000000
    x[2,0,0,0]  OBJ       0
    x[2,0,0,1]  OBJ       0
    x[2,0,1,0]  OBJ       0
    x[2,0,1,1]  OBJ       0
    x[2,0,2,0]  OBJ       0
    x[2,0,2,1]  c103      10000000
    x[2,0,2,1]  c104      -10000000
    x[2,0,2,1]  c105      10000000
    x[2,0,2,1]  c106      -10000000
    x[2,1,0,0]  OBJ       0
    x[2,1,0,1]  OBJ       0
    x[2,1,1,0]  OBJ       0
    x[2,1,1,1]  OBJ       0
    x[2,1,2,0]  c107      10000000
    x[2,1,2,0]  c108      -10000000
    x[2,1,2,0]  c109      10000000
    x[2,1,2,0]  c110      -10000000
    x[2,1,2,1]  OBJ       0
    s[0,0,0]  c0        1
    s[0,0,0]  c1        1
    s[0,0,0]  c24       1
    s[0,0,0]  c36       1
    s[0,0,0]  c39       -1
    s[0,0,0]  c40       1
    s[0,0,0]  c43       -1
    s[0,0,0]  c44       1
    s[0,0,0]  c47       -1
    s[0,0,0]  c48       1
    s[0,0,0]  c51       -1
    s[0,0,0]  c52       1
    s[0,0,0]  c55       -1
    s[0,0,0]  c56       1
    s[0,0,0]  c59       1
    s[0,0,0]  c60       -1
    s[0,0,0]  c111      1
    s[0,0,1]  c2        1
    s[0,0,1]  c3        1
    s[0,0,1]  c25       1
    s[0,0,1]  c36       1
    s[0,0,1]  c41       -1
    s[0,0,1]  c42       1
    s[0,0,1]  c45       -1
    s[0,0,1]  c46       1
    s[0,0,1]  c49       -1
    s[0,0,1]  c50       1
    s[0,0,1]  c53       -1
    s[0,0,1]  c54       1
    s[0,0,1]  c57       -1
    s[0,0,1]  c58       1
    s[0,0,1]  c61       1
    s[0,0,1]  c62       -1
    s[0,0,1]  c112      1
    s[0,1,0]  c26       1
    s[0,1,0]  c36       -1
    s[0,1,0]  c39       1
    s[0,1,0]  c40       -1
    s[0,1,0]  c59       -1
    s[0,1,0]  c60       1
    s[0,1,0]  c63       -1
    s[0,1,0]  c64       1
    s[0,1,0]  c67       -1
    s[0,1,0]  c68       1
    s[0,1,0]  c71       -1
    s[0,1,0]  c72       1
    s[0,1,0]  c75       -1
    s[0,1,0]  c76       1
    s[0,1,0]  c113      1
    s[0,1,0]  c114      1
    s[0,1,1]  c27       1
    s[0,1,1]  c36       -1
    s[0,1,1]  c41       1
    s[0,1,1]  c42       -1
    s[0,1,1]  c61       -1
    s[0,1,1]  c62       1
    s[0,1,1]  c65       -1
    s[0,1,1]  c66       1
    s[0,1,1]  c69       -1
    s[0,1,1]  c70       1
    s[0,1,1]  c73       -1
    s[0,1,1]  c74       1
    s[0,1,1]  c77       -1
    s[0,1,1]  c78       1
    s[0,1,1]  c115      1
    s[0,1,1]  c116      1
    s[1,0,0]  c4        1
    s[1,0,0]  c5        1
    s[1,0,0]  c28       1
    s[1,0,0]  c37       1
    s[1,0,0]  c43       1
    s[1,0,0]  c44       -1
    s[1,0,0]  c63       1
    s[1,0,0]  c64       -1
    s[1,0,0]  c79       -1
    s[1,0,0]  c80       1
    s[1,0,0]  c83       -1
    s[1,0,0]  c84       1
    s[1,0,0]  c87       -1
    s[1,0,0]  c88       1
    s[1,0,0]  c91       1
    s[1,0,0]  c92       -1
    s[1,0,0]  c117      1
    s[1,0,1]  c6        1
    s[1,0,1]  c7        1
    s[1,0,1]  c29       1
    s[1,0,1]  c37       1
    s[1,0,1]  c45       1
    s[1,0,1]  c46       -1
    s[1,0,1]  c65       1
    s[1,0,1]  c66       -1
    s[1,0,1]  c81       -1
    s[1,0,1]  c82       1
    s[1,0,1]  c85       -1
    s[1,0,1]  c86       1
    s[1,0,1]  c89       -1
    s[1,0,1]  c90       1
    s[1,0,1]  c93       1
    s[1,0,1]  c94       -1
    s[1,0,1]  c118      1
    s[1,1,0]  c30       1
    s[1,1,0]  c37       -1
    s[1,1,0]  c47       1
    s[1,1,0]  c48       -1
    s[1,1,0]  c67       1
    s[1,1,0]  c68       -1
    s[1,1,0]  c79       1
    s[1,1,0]  c80       -1
    s[1,1,0]  c91       -1
    s[1,1,0]  c92       1
    s[1,1,0]  c95       -1
    s[1,1,0]  c96       1
    s[1,1,0]  c99       -1
    s[1,1,0]  c100      1
    s[1,1,0]  c119      1
    s[1,1,0]  c120      1
    s[1,1,1]  c31       1
    s[1,1,1]  c37       -1
    s[1,1,1]  c49       1
    s[1,1,1]  c50       -1
    s[1,1,1]  c69       1
    s[1,1,1]  c70       -1
    s[1,1,1]  c81       1
    s[1,1,1]  c82       -1
    s[1,1,1]  c93       -1
    s[1,1,1]  c94       1
    s[1,1,1]  c97       -1
    s[1,1,1]  c98       1
    s[1,1,1]  c101      -1
    s[1,1,1]  c102      1
    s[1,1,1]  c121      1
    s[1,1,1]  c122      1
    s[2,0,0]  c8        1
    s[2,0,0]  c9        1
    s[2,0,0]  c32       1
    s[2,0,0]  c38       1
    s[2,0,0]  c51       1
    s[2,0,0]  c52       -1
    s[2,0,0]  c71       1
    s[2,0,0]  c72       -1
    s[2,0,0]  c83       1
    s[2,0,0]  c84       -1
    s[2,0,0]  c95       1
    s[2,0,0]  c96       -1
    s[2,0,0]  c103      -1
    s[2,0,0]  c104      1
    s[2,0,0]  c107      1
    s[2,0,0]  c108      -1
    s[2,0,0]  c123      1
    s[2,0,1]  c10       1
    s[2,0,1]  c11       1
    s[2,0,1]  c33       1
    s[2,0,1]  c38       1
    s[2,0,1]  c53       1
    s[2,0,1]  c54       -1
    s[2,0,1]  c73       1
    s[2,0,1]  c74       -1
    s[2,0,1]  c85       1
    s[2,0,1]  c86       -1
    s[2,0,1]  c97       1
    s[2,0,1]  c98       -1
    s[2,0,1]  c105      -1
    s[2,0,1]  c106      1
    s[2,0,1]  c109      1
    s[2,0,1]  c110      -1
    s[2,0,1]  c124      1
    s[2,1,0]  c34       1
    s[2,1,0]  c38       -1
    s[2,1,0]  c55       1
    s[2,1,0]  c56       -1
    s[2,1,0]  c75       1
    s[2,1,0]  c76       -1
    s[2,1,0]  c87       1
    s[2,1,0]  c88       -1
    s[2,1,0]  c99       1
    s[2,1,0]  c100      -1
    s[2,1,0]  c103      1
    s[2,1,0]  c104      -1
    s[2,1,0]  c107      -1
    s[2,1,0]  c108      1
    s[2,1,0]  c125      1
    s[2,1,0]  c126      1
    s[2,1,1]  c35       1
    s[2,1,1]  c38       -1
    s[2,1,1]  c57       1
    s[2,1,1]  c58       -1
    s[2,1,1]  c77       1
    s[2,1,1]  c78       -1
    s[2,1,1]  c89       1
    s[2,1,1]  c90       -1
    s[2,1,1]  c101      1
    s[2,1,1]  c102      -1
    s[2,1,1]  c105      1
    s[2,1,1]  c106      -1
    s[2,1,1]  c109      -1
    s[2,1,1]  c110      1
    s[2,1,1]  c127      1
    s[2,1,1]  c128      1
    Z_FO      OBJ       1
    Z_FO      OF_constraint  1
    C61       c0        -10000000
    C61       c1        -10000000
    C61       c12       1
    C61       OF_constraint  416
    C62       c2        -10000000
    C62       c3        -10000000
    C62       c13       1
    C62       OF_constraint  409
    C63       c4        -10000000
    C63       c5        -10000000
    C63       c14       1
    C63       OF_constraint  444
    C64       c6        -10000000
    C64       c7        -10000000
    C64       c15       1
    C64       OF_constraint  459
    C65       c8        -10000000
    C65       c9        -10000000
    C65       c16       1
    C65       OF_constraint  437
    C66       c10       -10000000
    C66       c11       -10000000
    C66       c17       1
    C66       OF_constraint  443
    MARKER    'MARKER'                 'INTEND'
RHS
    RHS1      c0        -9999520
    RHS1      c1        480
    RHS1      c2        -9999520
    RHS1      c3        480
    RHS1      c4        -9999520
    RHS1      c5        480
    RHS1      c6        -9999520
    RHS1      c7        480
    RHS1      c8        -9999520
    RHS1      c9        480
    RHS1      c10       -9999520
    RHS1      c11       480
    RHS1      c18       1
    RHS1      c19       1
    RHS1      c20       1
    RHS1      c21       1
    RHS1      c22       1
    RHS1      c23       1
    RHS1      c39       -19999777
    RHS1      c40       -29999876
    RHS1      c41       -19999745
    RHS1      c42       -29999900
    RHS1      c43       -19999783
    RHS1      c44       -29999904
    RHS1      c45       -19999755
    RHS1      c46       -29999811
    RHS1      c47       -19999830
    RHS1      c48       -29999768
    RHS1      c49       -19999851
    RHS1      c50       -29999891
    RHS1      c51       -19999798
    RHS1      c52       -29999804
    RHS1      c53       -19999869
    RHS1      c54       -29999937
    RHS1      c55       -19999771
    RHS1      c56       -29999901
    RHS1      c57       -19999779
    RHS1      c58       -29999785
    RHS1      c59       -19999876
    RHS1      c60       -29999777
    RHS1      c61       -19999900
    RHS1      c62       -29999745
    RHS1      c63       -19999813
    RHS1      c64       -29999830
    RHS1      c65       -19999784
    RHS1      c66       -29999781
    RHS1      c67       -19999845
    RHS1      c68       -29999801
    RHS1      c69       -19999768
    RHS1      c70       -29999829
    RHS1      c71       -19999772
    RHS1      c72       -29999897
    RHS1      c73       -19999908
    RHS1      c74       -29999937
    RHS1      c75       -19999931
    RHS1      c76       -29999927
    RHS1      c77       -19999700
    RHS1      c78       -29999660
    RHS1      c79       -19999904
    RHS1      c80       -29999676
    RHS1      c81       -19999734
    RHS1      c82       -29999800
    RHS1      c83       -19999938
    RHS1      c84       -29999637
    RHS1      c85       -19999820
    RHS1      c86       -29999699
    RHS1      c87       -19999856
    RHS1      c88       -29999880
    RHS1      c89       -19999811
    RHS1      c90       -29999921
    RHS1      c91       -19999676
    RHS1      c92       -29999904
    RHS1      c93       -19999800
    RHS1      c94       -29999734
    RHS1      c95       -19999786
    RHS1      c96       -29999767
    RHS1      c97       -19999851
    RHS1      c98       -29999783
    RHS1      c99       -19999902
    RHS1      c100      -29999895
    RHS1      c101      -19999887
    RHS1      c102      -29999877
    RHS1      c103      -19999767
    RHS1      c104      -29999895
    RHS1      c105      -19999755
    RHS1      c106      -29999869
    RHS1      c107      -19999895
    RHS1      c108      -29999767
    RHS1      c109      -19999869
    RHS1      c110      -29999755
BOUNDS
 BV BND1      y[0,0,0]
 BV BND1      y[0,0,1]
 BV BND1      y[0,1,0]
 BV BND1      y[0,1,1]
 BV BND1      y[1,0,0]
 BV BND1      y[1,0,1]
 BV BND1      y[1,1,0]
 BV BND1      y[1,1,1]
 BV BND1      y[2,0,0]
 BV BND1      y[2,0,1]
 BV BND1      y[2,1,0]
 BV BND1      y[2,1,1]
 BV BND1      x[0,0,0,0]
 BV BND1      x[0,0,0,1]
 BV BND1      x[0,0,1,0]
 BV BND1      x[0,0,1,1]
 BV BND1      x[0,0,2,0]
 BV BND1      x[0,0,2,1]
 BV BND1      x[0,1,0,0]
 BV BND1      x[0,1,0,1]
 BV BND1      x[0,1,1,0]
 BV BND1      x[0,1,1,1]
 BV BND1      x[0,1,2,0]
 BV BND1      x[0,1,2,1]
 BV BND1      x[1,0,0,0]
 BV BND1      x[1,0,0,1]
 BV BND1      x[1,0,1,0]
 BV BND1      x[1,0,1,1]
 BV BND1      x[1,0,2,0]
 BV BND1      x[1,0,2,1]
 BV BND1      x[1,1,0,0]
 BV BND1      x[1,1,0,1]
 BV BND1      x[1,1,1,0]
 BV BND1      x[1,1,1,1]
 BV BND1      x[1,1,2,0]
 BV BND1      x[1,1,2,1]
 BV BND1      x[2,0,0,0]
 BV BND1      x[2,0,0,1]
 BV BND1      x[2,0,1,0]
 BV BND1      x[2,0,1,1]
 BV BND1      x[2,0,2,0]
 BV BND1      x[2,0,2,1]
 BV BND1      x[2,1,0,0]
 BV BND1      x[2,1,0,1]
 BV BND1      x[2,1,1,0]
 BV BND1      x[2,1,1,1]
 BV BND1      x[2,1,2,0]
 BV BND1      x[2,1,2,1]
 LI BND1      s[0,0,0]  0
 LI BND1      s[0,0,1]  0
 LI BND1      s[0,1,0]  0
 LI BND1      s[0,1,1]  0
 LI BND1      s[1,0,0]  0
 LI BND1      s[1,0,1]  0
 LI BND1      s[1,1,0]  0
 LI BND1      s[1,1,1]  0
 LI BND1      s[2,0,0]  0
 LI BND1      s[2,0,1]  0
 LI BND1      s[2,1,0]  0
 LI BND1      s[2,1,1]  0
 LI BND1      Z_FO      0
 BV BND1      C61     
 BV BND1      C62     
 BV BND1      C63     
 BV BND1      C64     
 BV BND1      C65     
 BV BND1      C66     
QCMATRIX   OF_constraint
    s[0,0,0]  C61       -0.5
    C61       s[0,0,0]  -0.5
    s[0,0,1]  C62       -0.5
    C62       s[0,0,1]  -0.5
    s[1,0,0]  C63       -0.5
    C63       s[1,0,0]  -0.5
    s[1,0,1]  C64       -0.5
    C64       s[1,0,1]  -0.5
    s[2,0,0]  C65       -0.5
    C65       s[2,0,0]  -0.5
    s[2,0,1]  C66       -0.5
    C66       s[2,0,1]  -0.5
ENDATA
